25
3 0 20 0
3 0 1 0
3 0 3 0
3 0 4 0
3 0 16 0
3 0 15 0
3 0 22 0
3 0 5 0
3 0 19 0
3 0 10 0
3 0 6 0
3 0 9 0
3 0 13 0
3 0 7 0
3 0 8 0
3 0 12 0
3 0 24 0
3 0 33 0
4 0 2 17 0
5 0 18 21 14 0
3 0 11 0
6 0 27 23 28 26 0
5 0 25 35 29 0
4 0 34 36 0
5 0 30 32 31 0
